# Solution for model sexual reproduction_srl_ilp
# Objective value = 6.1785130175094132e+00
Z_277_0_0 0
Z_277_0_1 0
Z_277_0_2 0
Z_277_0_3 1
Z_277_0_4 0
Z_205_1_0 0
Z_205_1_1 0
Z_205_1_2 1
Z_205_1_3 0
Z_205_1_4 0
Z_356_1_0 0
Z_356_1_1 0
Z_356_1_2 1
Z_356_1_3 0
Z_356_1_4 0
Z_719_0_0 0
Z_719_0_1 0
Z_719_0_2 1
Z_719_0_3 0
Z_719_0_4 0
Z_217_0_0 0
Z_217_0_1 0
Z_217_0_2 0
Z_217_0_3 1
Z_217_0_4 0
Z_134_0_0 0
Z_134_0_1 0
Z_134_0_2 0
Z_134_0_3 0
Z_134_0_4 1
Z_267_0_0 0
Z_267_0_1 0
Z_267_0_2 1
Z_267_0_3 0
Z_267_0_4 0
Z_522_0_0 0
Z_522_0_1 0
Z_522_0_2 1
Z_522_0_3 0
Z_522_0_4 0
